p cnf 72 87
-1 68 0 
-2 3 9 29 32 38 40 52 57 68 0 
-3 2 9 29 32 38 40 52 57 -4 5 10 50 51 60 69 70 0 
-5 4 10 50 51 60 -6 15 20 24 41 69 70 0 
-7 69 70 0 
-8 61 -4 5 10 50 51 60 69 70 0 
-4 5 10 50 51 60 69 70 0 
-9 2 3 29 32 38 40 52 57 69 70 0 
-6 15 20 24 41 -10 4 5 50 51 60 69 70 0 
-11 -12 18 26 27 39 48 62 69 70 0 
-13 71 0 
-4 5 10 50 51 60 -3 2 9 29 32 38 40 52 57 69 70 0 
-14 46 -15 6 20 24 41 69 70 0 
-16 21 22 23 71 0 
-17 71 0 
-18 12 26 27 39 48 62 69 70 0 
-3 2 9 29 32 38 40 52 57 71 0 
-14 46 71 0 
-19 71 0 
-20 6 15 24 41 71 0 
-4 5 10 50 51 60 71 0 
-21 16 22 23 71 0 
-3 2 9 29 32 38 40 52 57 69 70 0 
-22 16 21 23 71 0 
-23 16 21 22 71 0 
-24 6 15 20 41 71 0 
-25 71 0 
-26 12 18 27 39 48 62 69 70 0 
-27 12 18 26 39 48 62 68 0 
-26 12 18 27 39 48 62 71 0 
-28 71 0 
-29 2 3 9 32 38 40 52 57 69 70 0 
-30 71 0 
-31 69 70 0 
-26 12 18 27 39 48 62 -3 2 9 29 32 38 40 52 57 69 70 0 
-8 61 71 0 
-28 -4 5 10 50 51 60 69 70 0 
-32 2 3 9 29 38 40 52 57 69 70 0 
-33 69 70 0 
-34 -20 6 15 24 41 69 70 0 
-35 68 0 
-3 2 9 29 32 38 40 52 57 -36 69 70 0 
-37 68 0 
-14 46 -4 5 10 50 51 60 69 70 0 
-38 2 3 9 29 32 40 52 57 -39 12 18 26 27 48 62 69 70 0 
-40 2 3 9 29 32 38 52 57 69 70 0 
-41 6 15 20 24 69 70 0 
-24 6 15 20 41 -42 69 70 0 
-39 12 18 26 27 48 62 69 70 0 
-17 -43 45 71 0 
-11 71 0 
-24 6 15 20 41 -44 69 70 0 
-45 43 -20 6 15 24 41 69 70 0 
-30 -8 61 71 0 
-3 2 9 29 32 38 40 52 57 -26 12 18 27 39 48 62 69 70 0 
-46 14 71 0 
-47 71 0 
-48 12 18 26 27 39 62 69 70 0 
-38 2 3 9 29 32 40 52 57 69 70 0 
-14 46 -49 69 70 0 
-45 43 -50 4 5 10 51 60 69 70 0 
-20 6 15 24 41 -4 5 10 50 51 60 69 70 0 
-45 43 71 0 
-47 69 70 0 
-16 21 22 23 -3 2 9 29 32 38 40 52 57 69 70 0 
-51 4 5 10 50 60 69 70 0 
-52 2 3 9 29 32 38 40 57 69 70 0 
-53 69 70 0 
-54 -55 59 64 69 70 0 
-55 59 64 69 70 0 
-30 -55 59 64 69 70 0 
-56 -55 59 64 69 70 0 
-57 2 3 9 29 32 38 40 52 69 70 0 
-58 69 70 0 
-59 55 64 69 70 0 
-30 -4 5 10 50 51 60 69 70 0 
-30 -6 15 20 24 41 69 70 0 
-43 45 -60 4 5 10 50 51 69 70 0 
-61 8 -43 45 71 0 
-62 12 18 26 27 39 48 -43 45 71 0 
-11 -63 69 70 0 
-63 69 70 0 
-8 61 -45 43 69 70 0 
-28 -64 55 59 69 70 0 
-64 55 59 -45 43 69 70 0 
-65 -66 72 0 
-66 -67 72 0 
